p cnf 40 68
-1 17 29 0
-2 17 18 32 0
-3 18 19 35 0
-4 19 38 0
-5 20 29 30 0
-6 20 21 32 33 0
-7 21 22 35 36 0
-8 22 38 39 0
-9 23 30 31 0
-10 23 24 33 34 0
-11 24 25 36 37 0
-12 25 39 40 0
-13 26 31 0
-14 26 27 34 0
-15 27 28 37 0
-16 28 40 0
-1 -17 -29 0
-2 -17 -18 0
-2 -17 -32 0
-2 -18 -32 0
-3 -18 -19 0
-3 -18 -35 0
-3 -19 -35 0
-4 -19 -38 0
-5 -20 -29 0
-5 -20 -30 0
-5 -29 -30 0
-6 -20 -21 0
-6 -20 -32 0
-6 -20 -33 0
-6 -21 -32 0
-6 -21 -33 0
-6 -32 -33 0
-7 -21 -22 0
-7 -21 -35 0
-7 -21 -36 0
-7 -22 -35 0
-7 -22 -36 0
-7 -35 -36 0
-8 -22 -38 0
-8 -22 -39 0
-8 -38 -39 0
-9 -23 -30 0
-9 -23 -31 0
-9 -30 -31 0
-10 -23 -24 0
-10 -23 -33 0
-10 -23 -34 0
-10 -24 -33 0
-10 -24 -34 0
-10 -33 -34 0
-11 -24 -25 0
-11 -24 -36 0
-11 -24 -37 0
-11 -25 -36 0
-11 -25 -37 0
-11 -36 -37 0
-12 -25 -39 0
-12 -25 -40 0
-12 -39 -40 0
-13 -26 -31 0
-14 -26 -27 0
-14 -26 -34 0
-14 -27 -34 0
-15 -27 -28 0
-15 -27 -37 0
-15 -28 -37 0
-16 -28 -40 0
